
  32    4
  10   10   10   10

   0   0   0   0   0  12 2 3 4 5 6 8 12 13 14 15 30 31 
   1   1   0   1   1   8 29 22 21 20 19 16 10 9 
   4   5   0   4   5   6 26 24 23 20 18 7 
   3   3   1   4   0   8 28 27 25 24 23 22 17 9 
   4   2   6   0   4   8 26 25 24 23 21 20 16 9 
   5   3   0   7   2   4 20 19 17 11 
   2   0   2   3   2   4 22 21 17 16 
   1   0   4   5   2   4 22 21 20 19 
   7   4   0   5   2   1 18 
   2   0   3   4   3   1 17 
   8   6   0   2   5   1 16 
   8   2   5   0   3   1 19 
  10   4   2   0   6   1 19 
   7   4   5   0   6   1 18 
   9   0   2   2   2   1 16 
  10   6   2   0   3   1 32
   5   6   0   5   6   1 32
   8   5   9   0   4   1 32
   7   5   2   6   0   1 32
   8   5   6   4   0   1 32
   6   3   5   0   8   1 32
   9   4   6   0   7   1 32
   2   6   0   2   4   1 32
   6   2   5   4   0   1 32
   1   4   4   0   3   1 32
  10   3   0   4   4   1 32
   1   4   2   0   3   1 32
   2   4   0   4   8   1 32
   1   0   6   4   2   1 32
  10   5   3   5   0   1 32
   7   0   4   5   5   1 32
   0   0   0   0   0   0 
